self-compositions/words_1/words_589_SAT.qaiger
aag 83 24 0 1 59
36
40
42
30
38
18
12
32
8
6
10
24
44
16
46
2
20
22
4
48
34
28
14
26
166
50 31 14
52 37 34
54 52 39
56 54 41
58 56 43
60 58 45
62 60 47
64 61 46
66 65 63
68 67 51
70 27 10
72 57 42
74 73 59
76 74 70
78 25 8
80 55 40
82 81 57
84 83 79
86 82 78
88 23 6
90 53 38
92 91 55
94 93 89
96 92 88
98 21 4
100 99 36
102 101 53
104 98 37
106 19 2
108 107 35
110 108 105
112 111 102
114 113 97
116 115 95
118 117 87
120 119 85
122 121 77
124 75 71
126 29 12
128 59 44
130 129 61
132 131 127
134 133 125
136 134 123
138 66 50
140 130 126
142 141 139
144 142 137
146 145 69
148 33 16
150 148 49
152 149 48
154 153 151
156 154 63
158 155 62
160 159 157
162 160 146
164 161 147
166 165 163
i0 2 z[1]
i1 2 z[3]
i2 2 z[4]
i3 2 y[6]
i4 2 z[2]
i5 2 y[0]
i6 1 x[5]
i7 2 y[7]
i8 1 x[3]
i9 1 x[2]
i10 1 x[4]
i11 2 y[3]
i12 2 z[5]
i13 1 x[7]
i14 2 z[6]
i15 1 x[0]
i16 2 y[1]
i17 2 y[2]
i18 1 x[1]
i19 2 z[7]
i20 2 z[0]
i21 2 y[5]
i22 1 x[6]
i23 2 y[4]
o0 bv[0]
c
simplified
  >=
    xor
      or
        1 x
        2 y
      2 y
    xor
      1
      2 z
