self-compositions/words_1/words_589_SAT.qaiger.qdimacs
p cnf 83 178
a 1 2 3 4 5 6 7 8 0
e 9 10 11 12 13 14 15 16 17 18 19 20 21 22 23 24 25 26 27 28 29 30 31 32 33 34 35 36 37 38 39 40 41 42 43 44 45 46 47 48 49 50 51 52 53 54 55 56 57 58 59 60 61 62 63 64 65 66 67 68 69 70 71 72 73 74 75 76 77 78 79 80 81 82 83 0
15 -7 25 0
-15 -25 0
7 -25 0
18 -17 26 0
-18 -26 0
17 -26 0
-26 19 27 0
26 -27 0
-19 -27 0
-27 20 28 0
27 -28 0
-20 -28 0
-28 21 29 0
28 -29 0
-21 -29 0
-29 22 30 0
29 -30 0
-22 -30 0
-30 23 31 0
30 -31 0
-23 -31 0
30 -23 32 0
-30 -32 0
23 -32 0
32 31 33 0
-32 -33 0
-31 -33 0
33 25 34 0
-33 -34 0
-25 -34 0
13 -5 35 0
-13 -35 0
5 -35 0
28 -21 36 0
-28 -36 0
21 -36 0
36 29 37 0
-36 -37 0
-29 -37 0
-37 -35 38 0
37 -38 0
35 -38 0
12 -4 39 0
-12 -39 0
4 -39 0
27 -20 40 0
-27 -40 0
20 -40 0
40 28 41 0
-40 -41 0
-28 -41 0
41 39 42 0
-41 -42 0
-39 -42 0
-41 -39 43 0
41 -43 0
39 -43 0
11 -3 44 0
-11 -44 0
3 -44 0
26 -19 45 0
-26 -45 0
19 -45 0
45 27 46 0
-45 -46 0
-27 -46 0
46 44 47 0
-46 -47 0
-44 -47 0
-46 -44 48 0
46 -48 0
44 -48 0
10 -2 49 0
-10 -49 0
2 -49 0
49 -18 50 0
-49 -50 0
18 -50 0
50 26 51 0
-50 -51 0
-26 -51 0
-49 18 52 0
49 -52 0
-18 -52 0
9 -1 53 0
-9 -53 0
1 -53 0
53 17 54 0
-53 -54 0
-17 -54 0
-54 52 55 0
54 -55 0
-52 -55 0
55 -51 56 0
-55 -56 0
51 -56 0
56 48 57 0
-56 -57 0
-48 -57 0
57 47 58 0
-57 -58 0
-47 -58 0
58 43 59 0
-58 -59 0
-43 -59 0
59 42 60 0
-59 -60 0
-42 -60 0
60 38 61 0
-60 -61 0
-38 -61 0
37 35 62 0
-37 -62 0
-35 -62 0
14 -6 63 0
-14 -63 0
6 -63 0
29 -22 64 0
-29 -64 0
22 -64 0
64 30 65 0
-64 -65 0
-30 -65 0
65 63 66 0
-65 -66 0
-63 -66 0
66 62 67 0
-66 -67 0
-62 -67 0
-67 61 68 0
67 -68 0
-61 -68 0
-33 -25 69 0
33 -69 0
25 -69 0
-65 -63 70 0
65 -70 0
63 -70 0
70 69 71 0
-70 -71 0
-69 -71 0
-71 68 72 0
71 -72 0
-68 -72 0
72 34 73 0
-72 -73 0
-34 -73 0
16 -8 74 0
-16 -74 0
8 -74 0
-74 24 75 0
74 -75 0
-24 -75 0
74 -24 76 0
-74 -76 0
24 -76 0
76 75 77 0
-76 -77 0
-75 -77 0
-77 31 78 0
77 -78 0
-31 -78 0
77 -31 79 0
-77 -79 0
31 -79 0
79 78 80 0
-79 -80 0
-78 -80 0
-80 -73 81 0
80 -81 0
73 -81 0
80 73 82 0
-80 -82 0
-73 -82 0
82 81 83 0
-82 -83 0
-81 -83 0
83 0
